NAME : a
COMMENT : 5915-city TSP (Reinelt)
TYPE : TSP
DIMENSION : 500
EDGE_WEIGHT_TYPE : EUC_2D
NODE_COORD_SECTION
1 1.81920e+04 8.95400e+03
2 1.81920e+04 9.85600e+03
3 1.81920e+04 1.13190e+04
4 1.82720e+04 8.62400e+03
5 1.84160e+04 7.34800e+03
6 1.84160e+04 8.29400e+03
7 1.20000e+03 7.37000e+03
8 1.20000e+03 8.18400e+03
9 1.20000e+03 1.09120e+04
10 1.20000e+03 1.14400e+04
11 1.79040e+04 5.72000e+02
12 1.79040e+04 2.68400e+03
13 1.79040e+04 6.90800e+03
14 1.79040e+04 7.34800e+03
15 1.79040e+04 8.62400e+03
16 8.27200e+03 3.08000e+02
17 8.27200e+03 2.06800e+03
18 8.27200e+03 2.50800e+03
19 8.27200e+03 3.08000e+03
20 8.27200e+03 3.60800e+03
21 8.27200e+03 5.30200e+03
22 8.33600e+03 7.26000e+03
23 8.46400e+03 7.26000e+03
24 8.49600e+03 9.54800e+03
25 8.49600e+03 1.05820e+04
26 8.49600e+03 1.14400e+04
27 1.58880e+04 9.06400e+03
28 1.58880e+04 9.50400e+03
29 1.58880e+04 1.02520e+04
30 1.58880e+04 1.10000e+04
31 1.59360e+04 8.18400e+03
32 1.60480e+04 8.18400e+03
33 1.62080e+04 8.18400e+03
34 1.63360e+04 5.72000e+02
35 1.63360e+04 1.01200e+03
36 1.63360e+04 1.45200e+03
37 1.63360e+04 2.99200e+03
38 1.63360e+04 4.81800e+03
39 1.63360e+04 6.02800e+03
40 1.63360e+04 7.34800e+03
41 1.04000e+03 7.37000e+03
42 1.04000e+03 8.18400e+03
43 1.04000e+03 1.09120e+04
44 1.04000e+03 1.14400e+04
45 4.46400e+03 3.08000e+02
46 4.64000e+03 3.08000e+02
47 4.81600e+03 3.08000e+02
48 4.94400e+03 3.08000e+02
49 5.16800e+03 3.08000e+02
50 5.44000e+03 3.08000e+02
51 5.61600e+03 3.08000e+02
52 5.72800e+03 3.08000e+02
53 5.80800e+03 3.08000e+03
54 5.80800e+03 3.60800e+03
55 5.80800e+03 4.66400e+03
56 5.80800e+03 5.36800e+03
57 5.80800e+03 6.07200e+03
58 5.80800e+03 7.12800e+03
59 5.93600e+03 9.65800e+03
60 5.93600e+03 1.12860e+04
61 1.68480e+04 5.72000e+02
62 1.68480e+04 1.45200e+03
63 1.68480e+04 2.99200e+03
64 1.68480e+04 4.70800e+03
65 1.68480e+04 6.02800e+03
66 1.68480e+04 7.34800e+03
67 1.68480e+04 8.51400e+03
68 1.68480e+04 9.28400e+03
69 1.68480e+04 9.92200e+03
70 1.68480e+04 1.11980e+04
71 8.24000e+03 7.48000e+03
72 8.40000e+03 9.54800e+03
73 8.40000e+03 1.05820e+04
74 8.40000e+03 1.14400e+04
75 1.52000e+03 9.15200e+03
76 1.52000e+03 1.09120e+04
77 1.52000e+03 1.14400e+04
78 1.58400e+03 6.44600e+03
79 1.58400e+03 7.59000e+03
80 1.58400e+03 8.29400e+03
81 5.16800e+03 1.14400e+04
82 5.28000e+03 1.14400e+04
83 5.45600e+03 1.14400e+04
84 5.58400e+03 1.14400e+04
85 5.71200e+03 1.14400e+04
86 2.67200e+03 6.33600e+03
87 2.78400e+03 6.55600e+03
88 2.97600e+03 6.55600e+03
89 3.10400e+03 6.55600e+03
90 3.26400e+03 6.55600e+03
91 3.36000e+03 6.55600e+03
92 3.60000e+03 6.55600e+03
93 3.85600e+03 6.55600e+03
94 3.92000e+03 6.55600e+03
95 4.01600e+03 6.55600e+03
96 4.14400e+03 6.55600e+03
97 4.20800e+03 6.55600e+03
98 4.35200e+03 6.55600e+03
99 4.46400e+03 6.55600e+03
100 4.56000e+03 6.55600e+03
101 4.68800e+03 6.55600e+03
102 4.72000e+03 7.26000e+03
103 4.72000e+03 8.14000e+03
104 4.72000e+03 9.70200e+03
105 4.72000e+03 1.05820e+04
106 4.72000e+03 1.11320e+04
107 1.70080e+04 5.72000e+02
108 1.70080e+04 1.45200e+03
109 1.70080e+04 2.99200e+03
110 1.70080e+04 5.87400e+03
111 1.70080e+04 7.34800e+03
112 1.70720e+04 8.09600e+03
113 1.71360e+04 8.09600e+03
114 1.72800e+04 8.09600e+03
115 1.74560e+04 8.09600e+03
116 1.75200e+04 8.40400e+03
117 1.75200e+04 8.95400e+03
118 1.75200e+04 1.01420e+04
119 1.75200e+04 1.13190e+04
120 8.80000e+02 7.37000e+03
121 8.80000e+02 8.18400e+03
122 8.80000e+02 1.14400e+04
123 4.14400e+03 4.84000e+03
124 4.14400e+03 7.70000e+03
125 4.30400e+03 8.36000e+03
126 4.41600e+03 8.36000e+03
127 4.57600e+03 8.36000e+03
128 4.65600e+03 8.36000e+03
129 4.86400e+03 8.36000e+03
130 5.04000e+03 8.36000e+03
131 5.29600e+03 8.36000e+03
132 5.45600e+03 8.84400e+03
133 5.45600e+03 9.81200e+03
134 5.52000e+03 3.60800e+03
135 5.52000e+03 4.66400e+03
136 5.52000e+03 5.36800e+03
137 5.52000e+03 5.91800e+03
138 5.52000e+03 6.93000e+03
139 1.65600e+04 8.95400e+03
140 1.65600e+04 9.92200e+03
141 1.65920e+04 5.72000e+02
142 1.65920e+04 1.45200e+03
143 1.65920e+04 2.99200e+03
144 1.65920e+04 4.81800e+03
145 1.65920e+04 6.13800e+03
146 1.65920e+04 7.34800e+03
147 7.72800e+03 7.74400e+03
148 7.72800e+03 9.54800e+03
149 7.72800e+03 1.08460e+04
150 7.79200e+03 7.04000e+03
151 7.85600e+03 7.04000e+03
152 7.95200e+03 7.04000e+03
153 8.01600e+03 3.08000e+02
154 8.01600e+03 2.06800e+03
155 8.01600e+03 2.50800e+03
156 8.01600e+03 3.08000e+03
157 8.01600e+03 3.60800e+03
158 8.01600e+03 4.26800e+03
159 8.01600e+03 5.85200e+03
160 1.62720e+04 9.06400e+03
161 1.62720e+04 9.50400e+03
162 1.62720e+04 9.92200e+03
163 1.62720e+04 1.10000e+04
164 1.66400e+04 8.84400e+03
165 1.67200e+04 8.84400e+03
166 1.67840e+04 6.02800e+03
167 1.67840e+04 7.34800e+03
168 1.67840e+04 8.51400e+03
169 4.64000e+02 1.14400e+04
170 5.28000e+02 8.18400e+03
171 6.40000e+02 8.18400e+03
172 7.84000e+02 7.37000e+03
173 7.84000e+02 7.96400e+03
174 7.66400e+03 6.44600e+03
175 7.66400e+03 8.07400e+03
176 7.66400e+03 9.54800e+03
177 7.66400e+03 1.08460e+04
178 7.72800e+03 3.08000e+02
179 7.72800e+03 2.06800e+03
180 7.72800e+03 2.50800e+03
181 7.72800e+03 3.08000e+03
182 7.72800e+03 3.60800e+03
183 7.72800e+03 4.04800e+03
184 7.72800e+03 4.48800e+03
185 5.23200e+03 3.60800e+03
186 5.23200e+03 4.66400e+03
187 5.23200e+03 5.36800e+03
188 5.23200e+03 5.91800e+03
189 5.23200e+03 6.77600e+03
190 5.52000e+03 7.92000e+03
191 3.85600e+03 7.48000e+03
192 3.92000e+03 7.92000e+03
193 4.01600e+03 7.92000e+03
194 4.17600e+03 9.15200e+03
195 4.17600e+03 9.92200e+03
196 4.17600e+03 1.04720e+04
197 4.17600e+03 1.09120e+04
198 4.17600e+03 1.14400e+04
199 5.98400e+03 7.48000e+02
200 6.09600e+03 3.08000e+03
201 6.09600e+03 3.60800e+03
202 6.09600e+03 4.66400e+03
203 6.16000e+03 5.36800e+03
204 6.22400e+03 5.36800e+03
205 6.32000e+03 5.36800e+03
206 6.49600e+03 5.36800e+03
207 6.60800e+03 5.69800e+03
208 6.60800e+03 6.33600e+03
209 6.60800e+03 7.50200e+03
210 6.60800e+03 9.06400e+03
211 6.60800e+03 1.01420e+04
212 6.60800e+03 1.10220e+04
213 1.72000e+04 5.87400e+03
214 1.72000e+04 7.34800e+03
215 1.72000e+04 9.28400e+03
216 1.72000e+04 9.92200e+03
217 1.72000e+04 1.11980e+04
218 1.72960e+04 5.19200e+03
219 1.74400e+04 5.19200e+03
220 1.75680e+04 5.19200e+03
221 1.76160e+04 5.72000e+02
222 1.76160e+04 2.99200e+03
223 7.24800e+03 1.03620e+04
224 7.24800e+03 1.12860e+04
225 7.37600e+03 3.08000e+02
226 7.37600e+03 9.68000e+02
227 7.37600e+03 2.06800e+03
228 7.37600e+03 2.50800e+03
229 7.37600e+03 3.08000e+03
230 7.37600e+03 3.60800e+03
231 7.37600e+03 4.48800e+03
232 7.37600e+03 5.58800e+03
233 7.37600e+03 6.55600e+03
234 7.37600e+03 7.74400e+03
235 1.80800e+03 6.44600e+03
236 1.84000e+03 7.43600e+03
237 1.84000e+03 8.40400e+03
238 1.84000e+03 9.04200e+03
239 1.84000e+03 1.09120e+04
240 1.84000e+03 1.14400e+04
241 1.22720e+04 9.87800e+03
242 1.24640e+04 9.06400e+03
243 1.25920e+04 9.06400e+03
244 1.27360e+04 9.06400e+03
245 1.28480e+04 9.02000e+02
246 1.28480e+04 1.98000e+03
247 1.28480e+04 2.64000e+03
248 1.28480e+04 3.16800e+03
249 1.28480e+04 3.60800e+03
250 1.28480e+04 4.15800e+03
251 1.28480e+04 5.36800e+03
252 1.28480e+04 6.55600e+03
253 1.28480e+04 6.99600e+03
254 1.28480e+04 8.00800e+03
255 1.28480e+04 8.84400e+03
256 1.64800e+03 8.40400e+03
257 1.64800e+03 9.15200e+03
258 1.64800e+03 1.09120e+04
259 1.64800e+03 1.14400e+04
260 1.68000e+03 6.44600e+03
261 1.68000e+03 7.59000e+03
262 6.25600e+03 9.65800e+03
263 6.25600e+03 1.10220e+04
264 1.69760e+04 8.51400e+03
265 1.69760e+04 9.28400e+03
266 1.69760e+04 9.92200e+03
267 1.69760e+04 1.11980e+04
268 1.70720e+04 5.72000e+03
269 1.71360e+04 5.72000e+03
270 1.74400e+04 5.72000e+03
271 1.76000e+04 5.72000e+03
272 1.16000e+04 5.72000e+02
273 1.16000e+04 1.76000e+03
274 1.16000e+04 3.38800e+03
275 1.16000e+04 5.25800e+03
276 1.16000e+04 6.55600e+03
277 1.16000e+04 6.99600e+03
278 1.16000e+04 7.89800e+03
279 1.16320e+04 8.60200e+03
280 1.16320e+04 9.28400e+03
281 1.16320e+04 1.02080e+04
282 1.73760e+04 1.01420e+04
283 1.77280e+04 1.01420e+04
284 1.84160e+04 1.01420e+04
285 1.86080e+04 1.01420e+04
286 1.87040e+04 1.01420e+04
287 1.88640e+04 1.01420e+04
288 1.89920e+04 1.01420e+04
289 1.90880e+04 1.01420e+04
290 6.22400e+03 9.68000e+02
291 6.22400e+03 3.08000e+03
292 6.22400e+03 3.60800e+03
293 6.22400e+03 4.66400e+03
294 6.40000e+03 1.09120e+04
295 6.76800e+03 1.09120e+04
296 6.86400e+03 1.12860e+04
297 1.93600e+03 6.33600e+03
298 1.93600e+03 7.43600e+03
299 1.96800e+03 8.40400e+03
300 1.96800e+03 9.15200e+03
301 1.96800e+03 1.09120e+04
302 1.96800e+03 1.14400e+04
303 3.98400e+03 8.71200e+03
304 4.30400e+03 8.93200e+03
305 4.41600e+03 8.93200e+03
306 4.49600e+03 1.08020e+04
307 1.54400e+04 1.23200e+03
308 1.54400e+04 3.60800e+03
309 1.54400e+04 4.18000e+03
310 1.54400e+04 4.81800e+03
311 1.55360e+04 5.80800e+03
312 1.56480e+04 5.80800e+03
313 1.57600e+04 5.80800e+03
314 1.58400e+04 5.80800e+03
315 1.59360e+04 5.80800e+03
316 1.60480e+04 5.80800e+03
317 1.62080e+04 5.80800e+03
318 5.58400e+03 1.02520e+04
319 5.72800e+03 1.02520e+04
320 6.00000e+03 1.02520e+04
321 6.06400e+03 1.02520e+04
322 6.16000e+03 1.02520e+04
323 6.32000e+03 9.68000e+02
324 6.32000e+03 3.08000e+03
325 6.32000e+03 3.60800e+03
326 6.32000e+03 4.66400e+03
327 6.38400e+03 9.54800e+03
328 6.38400e+03 1.04720e+04
329 1.67200e+04 1.11980e+04
330 1.70880e+04 1.11980e+04
331 1.73760e+04 1.11980e+04
332 1.77280e+04 1.11980e+04
333 1.84160e+04 1.11980e+04
334 1.86080e+04 1.11980e+04
335 1.87040e+04 1.11980e+04
336 1.88480e+04 1.11980e+04
337 1.52800e+04 5.72000e+02
338 1.52800e+04 1.23200e+03
339 1.52800e+04 3.60800e+03
340 1.52800e+04 4.18000e+03
341 1.52800e+04 4.81800e+03
342 1.52800e+04 6.13800e+03
343 1.52800e+04 7.34800e+03
344 1.52800e+04 8.22800e+03
345 1.52800e+04 9.06400e+03
346 1.52800e+04 9.50400e+03
347 1.52800e+04 1.02520e+04
348 1.52800e+04 1.10000e+04
349 3.47200e+03 7.92000e+03
350 3.47200e+03 8.71200e+03
351 3.47200e+03 9.37200e+03
352 3.47200e+03 1.04720e+04
353 3.47200e+03 1.09120e+04
354 3.47200e+03 1.14400e+04
355 2.08000e+02 1.14400e+04
356 4.32000e+02 7.96400e+03
357 9.44000e+02 7.96400e+03
358 1.10400e+03 7.37000e+03
359 1.42400e+03 6.44600e+03
360 1.42400e+03 7.37000e+03
361 1.42400e+03 8.29400e+03
362 1.00960e+04 4.37800e+03
363 1.00960e+04 5.47800e+03
364 1.00960e+04 6.55600e+03
365 1.00960e+04 7.48000e+03
366 1.00960e+04 8.00800e+03
367 1.00960e+04 8.60200e+03
368 1.00960e+04 9.28400e+03
369 1.00960e+04 1.03180e+04
370 1.00960e+04 1.14400e+04
371 1.02560e+04 3.60800e+03
372 1.03360e+04 3.60800e+03
373 1.04480e+04 3.60800e+03
374 1.05440e+04 3.60800e+03
375 1.06080e+04 3.60800e+03
376 1.06720e+04 3.60800e+03
377 1.07520e+04 3.60800e+03
378 1.08640e+04 3.60800e+03
379 1.09920e+04 3.60800e+03
380 1.10880e+04 3.60800e+03
381 1.11680e+04 3.60800e+03
382 1.12800e+04 3.60800e+03
383 1.14080e+04 3.60800e+03
384 6.88000e+02 7.37000e+03
385 6.88000e+02 1.14400e+04
386 6.16000e+03 9.68000e+02
387 6.49600e+03 9.68000e+02
388 6.59200e+03 9.68000e+02
389 6.73600e+03 9.68000e+02
390 6.84800e+03 9.68000e+02
391 6.94400e+03 9.68000e+02
392 7.10400e+03 9.68000e+02
393 7.23200e+03 9.68000e+02
394 7.55200e+03 9.68000e+02
395 7.60000e+03 3.08000e+02
396 7.60000e+03 2.06800e+03
397 7.60000e+03 2.50800e+03
398 7.60000e+03 3.08000e+03
399 7.60000e+03 3.60800e+03
400 7.60000e+03 4.04800e+03
401 7.60000e+03 4.48800e+03
402 7.63200e+03 5.14800e+03
403 7.79200e+03 5.14800e+03
404 7.85600e+03 5.14800e+03
405 7.92000e+03 5.14800e+03
406 8.11200e+03 5.14800e+03
407 8.38400e+03 5.14800e+03
408 8.46400e+03 5.14800e+03
409 8.62400e+03 5.14800e+03
410 8.80000e+03 5.14800e+03
411 8.91200e+03 5.14800e+03
412 9.21600e+03 5.14800e+03
413 9.50400e+03 5.14800e+03
414 9.61600e+03 5.14800e+03
415 9.74400e+03 5.14800e+03
416 9.88800e+03 5.14800e+03
417 9.93600e+03 6.55600e+03
418 9.93600e+03 7.48000e+03
419 9.93600e+03 8.38200e+03
420 9.93600e+03 9.28400e+03
421 9.93600e+03 1.14400e+04
422 1.00320e+04 5.72000e+02
423 1.00320e+04 1.45200e+03
424 1.00320e+04 2.72800e+03
425 6.49600e+03 7.08400e+03
426 6.73600e+03 7.08400e+03
427 6.76800e+03 9.06400e+03
428 6.76800e+03 1.01420e+04
429 9.93600e+03 5.72000e+02
430 9.93600e+03 1.45200e+03
431 5.20000e+03 1.00320e+04
432 7.40800e+03 1.03620e+04
433 7.56800e+03 1.06920e+04
434 7.85600e+03 1.06920e+04
435 7.93600e+03 1.06920e+04
436 8.03200e+03 1.06920e+04
437 8.14400e+03 1.06920e+04
438 8.22400e+03 1.06920e+04
439 8.32000e+03 1.06920e+04
440 8.78400e+03 1.06920e+04
441 8.97600e+03 1.06920e+04
442 9.40800e+03 1.06920e+04
443 1.02880e+04 1.06920e+04
444 1.04000e+04 1.06920e+04
445 1.05600e+04 1.06920e+04
446 1.07040e+04 1.06920e+04
447 1.08640e+04 1.06920e+04
448 1.09600e+04 1.06920e+04
449 1.11360e+04 1.06920e+04
450 1.12640e+04 1.06920e+04
451 1.13920e+04 1.06920e+04
452 1.14720e+04 1.06920e+04
453 1.15680e+04 1.06920e+04
454 4.88000e+03 9.21800e+03
455 4.88000e+03 1.00320e+04
456 4.88000e+03 1.05820e+04
457 4.88000e+03 1.11320e+04
458 4.94400e+03 3.60800e+03
459 4.94400e+03 4.66400e+03
460 4.94400e+03 5.36800e+03
461 4.94400e+03 5.91800e+03
462 4.94400e+03 6.77600e+03
463 4.94400e+03 7.43600e+03
464 6.94400e+03 3.08000e+02
465 7.10400e+03 3.08000e+02
466 7.23200e+03 3.08000e+02
467 7.79200e+03 3.08000e+02
468 7.85600e+03 3.08000e+02
469 7.92000e+03 3.08000e+02
470 8.12800e+03 3.08000e+02
471 8.38400e+03 3.08000e+02
472 8.46400e+03 3.08000e+02
473 8.52800e+03 3.08000e+02
474 8.59200e+03 3.08000e+02
475 8.68800e+03 3.08000e+02
476 8.80000e+03 3.08000e+02
477 8.91200e+03 3.08000e+02
478 9.00800e+03 3.08000e+02
479 9.10400e+03 3.08000e+02
480 9.20000e+03 3.08000e+02
481 9.23200e+03 1.45200e+03
482 9.23200e+03 2.28800e+03
483 9.23200e+03 3.38800e+03
484 9.34400e+03 7.26000e+03
485 9.45600e+03 8.60200e+03
486 9.45600e+03 1.14400e+04
487 3.56800e+03 7.92000e+03
488 3.66400e+03 7.92000e+03
489 3.72800e+03 7.92000e+03
490 8.24000e+03 9.54800e+03
491 8.24000e+03 1.14400e+04
492 9.37600e+03 6.77600e+03
493 9.77600e+03 5.72000e+02
494 9.77600e+03 1.45200e+03
495 9.77600e+03 2.50800e+03
496 9.77600e+03 3.38800e+03
497 6.99200e+03 7.85400e+03
498 6.99200e+03 9.17400e+03
499 6.99200e+03 9.81200e+03
500 6.99200e+03 1.03620e+04
EOF
